15
1 0 2
2 0 9
3 0 4
3 1 4
3 2 7
4 2 5
4 3 7
5 1 4
6 0 5
6 1 9
6 2 5
6 5 2
7 2 1
7 3 3
7 5 6
7 6 6
8 0 1
8 1 8
8 3 2
8 4 5
8 5 9
8 6 10
9 1 10
9 3 7
9 7 7
9 8 10
10 1 8
10 2 2
10 5 9
10 6 5
10 7 2
11 0 5
11 1 5
11 10 4
12 1 6
12 4 3
12 5 1
12 6 7
13 0 3
13 1 6
13 2 3
13 3 6
13 8 4
13 9 4
13 10 10
13 11 6
13 12 4
14 3 9
14 4 1
14 7 5
14 8 1
14 13 10
